peakDumbCharging = 25900; 
Machine = anon_enum(16); 
machineSpeed = [3700,3700,3700,3700,3700,3700,3700,3700,3700,3700,3700,3700,3700,3700,3700,3700]; 
machineLoad = [3700,3700,3700,3700,3700,3700,3700,3700,3700,3700,3700,3700,3700,3700,3700,3700]; 
Car = anon_enum(31); 
demandCar = [8720,11600,7160,8040,7000,2920,13360,2440,33800,9280,1800,1960,2320,17680,2800,3280,7000,12240,23880,8080,1480,3120,12320,4280,23600,8800,5240,1760,9600,10200,31880]; 
arrivalCar = [74,68,66,66,63,63,62,62,62,61,61,61,58,58,57,56,53,48,42,41,39,36,35,34,34,33,32,30,28,25,25]; 
departureCar = [78,76,71,71,66,64,67,64,73,67,63,63,60,66,63,59,56,53,51,45,41,39,42,37,42,37,36,32,33,41,36]; 
